data/lp_files/pEFS/47_6.lp
\ Model foo
\ LP format - for model browsing. Use MPS format to capture full model detail.
Minimize
  z
Subject To
 allocateEach[1]: x[1,1] + x[2,1] + x[3,1] = 1
 allocateEach[2]: x[1,2] + x[2,2] + x[3,2] = 1
 allocateEach[3]: x[1,3] + x[2,3] + x[3,3] = 1
 allocateEach[4]: x[1,4] + x[2,4] + x[3,4] = 1
 allocateEach[5]: x[1,5] + x[2,5] + x[3,5] = 1
 allocateEach[6]: x[1,6] + x[2,6] + x[3,6] = 1
 allocateEach[7]: x[1,7] + x[2,7] + x[3,7] = 1
 allocateAllCash: cashProportion[1] + cashProportion[2] + cashProportion[3]
   = 1
 findWorstP[1,2]: z + 0.1179001974828308 cashProportion[1]
   - 0.1179001974828308 cashProportion[2] + 0.1846906593568544 x[1,1]
   + 0.0211925604975388 x[1,2] + 0.242108055530993 x[1,3]
   + 0.0863029445574321 x[1,4] + 0.2285495328204675 x[1,5]
   + 0.1112388363250508 x[1,6] + 0.00801721342883249 x[1,7]
   - 0.1846906593568544 x[2,1] - 0.0211925604975388 x[2,2]
   - 0.242108055530993 x[2,3] - 0.0863029445574321 x[2,4]
   - 0.2285495328204675 x[2,5] - 0.1112388363250508 x[2,6]
   - 0.00801721342883249 x[2,7] >= 0
 findWorstP[1,3]: z + 0.1179001974828308 cashProportion[1]
   - 0.1179001974828308 cashProportion[3] + 0.1846906593568544 x[1,1]
   + 0.0211925604975388 x[1,2] + 0.242108055530993 x[1,3]
   + 0.0863029445574321 x[1,4] + 0.2285495328204675 x[1,5]
   + 0.1112388363250508 x[1,6] + 0.00801721342883249 x[1,7]
   - 0.1846906593568544 x[3,1] - 0.0211925604975388 x[3,2]
   - 0.242108055530993 x[3,3] - 0.0863029445574321 x[3,4]
   - 0.2285495328204675 x[3,5] - 0.1112388363250508 x[3,6]
   - 0.00801721342883249 x[3,7] >= 0
 findWorstP[2,1]: z - 0.086939511834641 cashProportion[1]
   + 0.086939511834641 cashProportion[2] - 0.1487317698711122 x[1,1]
   - 0.1994827099045839 x[1,2] - 0.084766024038775 x[1,3]
   - 0.1229976743680584 x[1,4] - 0.1093699058879784 x[1,5]
   - 0.0668999543567563 x[1,6] - 0.1808124497380947 x[1,7]
   + 0.1487317698711122 x[2,1] + 0.1994827099045839 x[2,2]
   + 0.084766024038775 x[2,3] + 0.1229976743680584 x[2,4]
   + 0.1093699058879784 x[2,5] + 0.0668999543567563 x[2,6]
   + 0.1808124497380947 x[2,7] >= 0
 findWorstP[2,3]: z + 0.086939511834641 cashProportion[2]
   - 0.086939511834641 cashProportion[3] + 0.1487317698711122 x[2,1]
   + 0.1994827099045839 x[2,2] + 0.084766024038775 x[2,3]
   + 0.1229976743680584 x[2,4] + 0.1093699058879784 x[2,5]
   + 0.0668999543567563 x[2,6] + 0.1808124497380947 x[2,7]
   - 0.1487317698711122 x[3,1] - 0.1994827099045839 x[3,2]
   - 0.084766024038775 x[3,3] - 0.1229976743680584 x[3,4]
   - 0.1093699058879784 x[3,5] - 0.0668999543567563 x[3,6]
   - 0.1808124497380947 x[3,7] >= 0
 findWorstP[3,1]: z - 0.0850882790895554 cashProportion[1]
   + 0.0850882790895554 cashProportion[3] - 0.1565198893852372 x[1,1]
   - 0.1826207189959583 x[1,2] - 0.0626462454796852 x[1,3]
   - 0.1831950648798128 x[1,4] - 0.1731546479472452 x[1,5]
   - 0.0720272282493087 x[1,6] - 0.0847479259731972 x[1,7]
   + 0.1565198893852372 x[3,1] + 0.1826207189959583 x[3,2]
   + 0.0626462454796852 x[3,3] + 0.1831950648798128 x[3,4]
   + 0.1731546479472452 x[3,5] + 0.0720272282493087 x[3,6]
   + 0.0847479259731972 x[3,7] >= 0
 findWorstP[3,2]: z - 0.0850882790895554 cashProportion[2]
   + 0.0850882790895554 cashProportion[3] - 0.1565198893852372 x[2,1]
   - 0.1826207189959583 x[2,2] - 0.0626462454796852 x[2,3]
   - 0.1831950648798128 x[2,4] - 0.1731546479472452 x[2,5]
   - 0.0720272282493087 x[2,6] - 0.0847479259731972 x[2,7]
   + 0.1565198893852372 x[3,1] + 0.1826207189959583 x[3,2]
   + 0.0626462454796852 x[3,3] + 0.1831950648798128 x[3,4]
   + 0.1731546479472452 x[3,5] + 0.0720272282493087 x[3,6]
   + 0.0847479259731972 x[3,7] >= 0
Bounds
 z <= 1
 -infinity <= cashProportion[1] <= 1
 -infinity <= cashProportion[2] <= 1
 -infinity <= cashProportion[3] <= 1
Binaries
 x[1,1] x[1,2] x[1,3] x[1,4] x[1,5] x[1,6] x[1,7] x[2,1] x[2,2] x[2,3]
 x[2,4] x[2,5] x[2,6] x[2,7] x[3,1] x[3,2] x[3,3] x[3,4] x[3,5] x[3,6]
 x[3,7]
End
